out/bwp_6_7_1_lp.out
7
2 4    2 4
2 0    3 1
4 0    5 1
2 2    3 3
4 3    5 4
4 5    5 6
0 0    1 6
