out/bwp_6_7_1_lp.log
Tried aggregator 2 times.
MIP Presolve eliminated 14 rows and 8 columns.
MIP Presolve modified 126 coefficients.
Aggregator did 126 substitutions.
Reduced MIP has 437 rows, 393 columns, and 1020 nonzeros.
Reduced MIP has 252 binaries, 15 generals, 0 SOSs, and 68 indicators.
Presolve time = 0.00 sec. (0.99 ticks)
Found incumbent of value 18.000000 after 0.01 sec. (1.68 ticks)
Probing fixed 30 vars, tightened 62 bounds.
Probing time = 0.01 sec. (1.81 ticks)
Tried aggregator 3 times.
MIP Presolve eliminated 50 rows and 50 columns.
Aggregator did 116 substitutions.
Reduced MIP has 271 rows, 227 columns, and 668 nonzeros.
Reduced MIP has 170 binaries, 50 generals, 0 SOSs, and 48 indicators.
Presolve time = 0.00 sec. (1.33 ticks)
Probing time = 0.00 sec. (0.65 ticks)
Tried aggregator 1 time.
Reduced MIP has 271 rows, 227 columns, and 668 nonzeros.
Reduced MIP has 170 binaries, 50 generals, 0 SOSs, and 48 indicators.
Presolve time = 0.00 sec. (0.33 ticks)
Probing time = 0.00 sec. (0.64 ticks)
Clique table members: 128.
MIP emphasis: balance optimality and feasibility.
MIP search method: dynamic search.
Parallel mode: deterministic, using up to 4 threads.
Root relaxation solution time = 0.00 sec. (0.59 ticks)

        Nodes                                         Cuts/
   Node  Left     Objective  IInf  Best Integer    Best Bound    ItCnt     Gap

*     0+    0                           18.0000        7.0000       64   61.11%
      0     0        7.0000    91       18.0000        7.0000       64   61.11%
      0     0        7.0000    21       18.0000       Cuts: 8       75   61.11%
      0     0        7.0000    43       18.0000      Cuts: 32       98   61.11%
      0     0        7.0000     6       18.0000   Impl Bds: 2       99   61.11%
*     0+    0                            7.0000        7.0000       99    0.00%
      0     0        cutoff              7.0000        7.0000       99    0.00%
Elapsed time = 0.08 sec. (22.24 ticks, tree = 0.00 MB, solutions = 2)

Clique cuts applied:  1
Cover cuts applied:  1
Implied bound cuts applied:  7
Zero-half cuts applied:  1
Gomory fractional cuts applied:  7

Root node processing (before b&c):
  Real time             =    0.08 sec. (22.25 ticks)
Parallel b&c, 4 threads:
  Real time             =    0.00 sec. (0.00 ticks)
  Sync time (average)   =    0.00 sec.
  Wait time (average)   =    0.00 sec.
                          ------------
Total (root+branch&cut) =    0.08 sec. (22.25 ticks)
